c File: flat30_3_0.col
c
c SOURCE: Joseph Culberson (joe@cs.ualberta.ca)
c DESCRIPTION: Quasi-random coloring problem
c              generated with flatness = 0
c                             probability = 0.200
c                             known coloring = 3
c                             random seed = 237685
c              Creation Date:  Fri Nov 29 22:02:17 1996
c Maximum degree = 6 Minimum degree = 2
c
c cnf created by edge2cnf
p cnf 90 300
-1 -2 0
-1 -3 0
-2 -3 0
1 2 3 0
-4 -5 0
-4 -6 0
-5 -6 0
4 5 6 0
-7 -8 0
-7 -9 0
-8 -9 0
7 8 9 0
-10 -11 0
-10 -12 0
-11 -12 0
10 11 12 0
-13 -14 0
-13 -15 0
-14 -15 0
13 14 15 0
-16 -17 0
-16 -18 0
-17 -18 0
16 17 18 0
-19 -20 0
-19 -21 0
-20 -21 0
19 20 21 0
-22 -23 0
-22 -24 0
-23 -24 0
22 23 24 0
-25 -26 0
-25 -27 0
-26 -27 0
25 26 27 0
-28 -29 0
-28 -30 0
-29 -30 0
28 29 30 0
-31 -32 0
-31 -33 0
-32 -33 0
31 32 33 0
-34 -35 0
-34 -36 0
-35 -36 0
34 35 36 0
-37 -38 0
-37 -39 0
-38 -39 0
37 38 39 0
-40 -41 0
-40 -42 0
-41 -42 0
40 41 42 0
-43 -44 0
-43 -45 0
-44 -45 0
43 44 45 0
-46 -47 0
-46 -48 0
-47 -48 0
46 47 48 0
-49 -50 0
-49 -51 0
-50 -51 0
49 50 51 0
-52 -53 0
-52 -54 0
-53 -54 0
52 53 54 0
-55 -56 0
-55 -57 0
-56 -57 0
55 56 57 0
-58 -59 0
-58 -60 0
-59 -60 0
58 59 60 0
-61 -62 0
-61 -63 0
-62 -63 0
61 62 63 0
-64 -65 0
-64 -66 0
-65 -66 0
64 65 66 0
-67 -68 0
-67 -69 0
-68 -69 0
67 68 69 0
-70 -71 0
-70 -72 0
-71 -72 0
70 71 72 0
-73 -74 0
-73 -75 0
-74 -75 0
73 74 75 0
-76 -77 0
-76 -78 0
-77 -78 0
76 77 78 0
-79 -80 0
-79 -81 0
-80 -81 0
79 80 81 0
-82 -83 0
-82 -84 0
-83 -84 0
82 83 84 0
-85 -86 0
-85 -87 0
-86 -87 0
85 86 87 0
-88 -89 0
-88 -90 0
-89 -90 0
88 89 90 0
-43 -1 0
-44 -2 0
-45 -3 0
-55 -1 0
-56 -2 0
-57 -3 0
-67 -1 0
-68 -2 0
-69 -3 0
-70 -1 0
-71 -2 0
-72 -3 0
-49 -4 0
-50 -5 0
-51 -6 0
-88 -4 0
-89 -5 0
-90 -6 0
-46 -7 0
-47 -8 0
-48 -9 0
-52 -7 0
-53 -8 0
-54 -9 0
-61 -7 0
-62 -8 0
-63 -9 0
-88 -7 0
-89 -8 0
-90 -9 0
-40 -10 0
-41 -11 0
-42 -12 0
-52 -10 0
-53 -11 0
-54 -12 0
-67 -10 0
-68 -11 0
-69 -12 0
-73 -10 0
-74 -11 0
-75 -12 0
-79 -10 0
-80 -11 0
-81 -12 0
-34 -13 0
-35 -14 0
-36 -15 0
-52 -13 0
-53 -14 0
-54 -15 0
-61 -13 0
-62 -14 0
-63 -15 0
-76 -13 0
-77 -14 0
-78 -15 0
-82 -13 0
-83 -14 0
-84 -15 0
-37 -16 0
-38 -17 0
-39 -18 0
-43 -16 0
-44 -17 0
-45 -18 0
-76 -16 0
-77 -17 0
-78 -18 0
-34 -19 0
-35 -20 0
-36 -21 0
-46 -19 0
-47 -20 0
-48 -21 0
-49 -19 0
-50 -20 0
-51 -21 0
-61 -19 0
-62 -20 0
-63 -21 0
-31 -22 0
-32 -23 0
-33 -24 0
-34 -22 0
-35 -23 0
-36 -24 0
-40 -22 0
-41 -23 0
-42 -24 0
-73 -22 0
-74 -23 0
-75 -24 0
-79 -22 0
-80 -23 0
-81 -24 0
-82 -22 0
-83 -23 0
-84 -24 0
-43 -25 0
-44 -26 0
-45 -27 0
-55 -25 0
-56 -26 0
-57 -27 0
-58 -25 0
-59 -26 0
-60 -27 0
-73 -25 0
-74 -26 0
-75 -27 0
-79 -25 0
-80 -26 0
-81 -27 0
-67 -28 0
-68 -29 0
-69 -30 0
-76 -28 0
-77 -29 0
-78 -30 0
-70 -31 0
-71 -32 0
-72 -33 0
-76 -31 0
-77 -32 0
-78 -33 0
-82 -34 0
-83 -35 0
-84 -36 0
-61 -37 0
-62 -38 0
-63 -39 0
-64 -37 0
-65 -38 0
-66 -39 0
-70 -37 0
-71 -38 0
-72 -39 0
-76 -43 0
-77 -44 0
-78 -45 0
-85 -43 0
-86 -44 0
-87 -45 0
-61 -46 0
-62 -47 0
-63 -48 0
-82 -46 0
-83 -47 0
-84 -48 0
-88 -46 0
-89 -47 0
-90 -48 0
-64 -49 0
-65 -50 0
-66 -51 0
-67 -52 0
-68 -53 0
-69 -54 0
-85 -52 0
-86 -53 0
-87 -54 0
-88 -52 0
-89 -53 0
-90 -54 0
-70 -55 0
-71 -56 0
-72 -57 0
-82 -55 0
-83 -56 0
-84 -57 0
-85 -55 0
-86 -56 0
-87 -57 0
-61 -58 0
-62 -59 0
-63 -60 0
-73 -58 0
-74 -59 0
-75 -60 0
